; PUSH cw_3 PUSH cw_3 PUSH cw_4 SWAP1 SLOAD SWAP1 => PUSH cw_3 DUP1 SLOAD PUSH cw_4
(set-option :produce-proofs true)
; 
(set-info :status unknown)
(declare-fun storage_t ((_ BitVec 256) (_ BitVec 256) (_ BitVec 256) Int (_ BitVec 256)) (_ BitVec 256))
(declare-fun w_4 () (_ BitVec 256))
(declare-fun w_3 () (_ BitVec 256))
(declare-fun storage_s ((_ BitVec 256) (_ BitVec 256) (_ BitVec 256) Int (_ BitVec 256)) (_ BitVec 256))
(declare-fun exc_halt_t (Int) Bool)
(declare-fun exc_halt_s (Int) Bool)
(declare-fun stack_t ((_ BitVec 256) (_ BitVec 256) (_ BitVec 256) Int (_ BitVec 6)) (_ BitVec 256))
(declare-fun stack_s ((_ BitVec 256) (_ BitVec 256) (_ BitVec 256) Int (_ BitVec 6)) (_ BitVec 256))
(declare-fun sc_t (Int) (_ BitVec 6))
(declare-fun sc_s (Int) (_ BitVec 6))
(declare-fun used_gas_t ((_ BitVec 256) (_ BitVec 256) (_ BitVec 256) Int) Int)
(declare-fun used_gas_s ((_ BitVec 256) (_ BitVec 256) (_ BitVec 256) Int) Int)
(assert
 (exists ((x_SLOAD_0 (_ BitVec 256)) )(let (($x5837 (forall ((w (_ BitVec 256)) )(let ((?x3226 (storage_t x_SLOAD_0 w_3 w_4 4 w)))
 (let ((?x6228 (storage_s x_SLOAD_0 w_3 w_4 6 w)))
 (= ?x6228 ?x3226))))
 ))
 (let (($x7854 (exc_halt_t 4)))
 (let (($x772 (exc_halt_s 6)))
 (let (($x4404 (= $x772 $x7854)))
 (let (($x2997 (forall ((n (_ BitVec 6)) )(let ((?x7601 (stack_t x_SLOAD_0 w_3 w_4 4 n)))
 (let ((?x6792 (stack_s x_SLOAD_0 w_3 w_4 6 n)))
 (let (($x11514 (= ?x6792 ?x7601)))
 (or (bvsle (sc_t 4) n) $x11514)))))
 ))
 (let ((?x4818 (sc_t 4)))
 (let ((?x926 (sc_s 6)))
 (let (($x7899 (= ?x926 ?x4818)))
 (let ((?x9522 (used_gas_t x_SLOAD_0 w_3 w_4 0)))
 (let ((?x6847 (used_gas_s x_SLOAD_0 w_3 w_4 0)))
 (let (($x5751 (= ?x6847 ?x9522)))
 (let (($x4346 (forall ((w (_ BitVec 256)) )(let ((?x10468 (storage_t x_SLOAD_0 w_3 w_4 0 w)))
 (let ((?x10620 (storage_s x_SLOAD_0 w_3 w_4 0 w)))
 (= ?x10620 ?x10468))))
 ))
 (let (($x56 (exc_halt_t 0)))
 (let (($x57 (exc_halt_s 0)))
 (let (($x58 (= $x57 $x56)))
 (let (($x2022 (forall ((n (_ BitVec 6)) )(let ((?x5347 (stack_t x_SLOAD_0 w_3 w_4 0 n)))
 (let ((?x609 (stack_s x_SLOAD_0 w_3 w_4 0 n)))
 (let (($x8316 (= ?x609 ?x5347)))
 (let ((?x63 (sc_t 0)))
 (let (($x1948 (bvsle ?x63 n)))
 (or $x1948 $x8316)))))))
 ))
 (let ((?x63 (sc_t 0)))
 (let ((?x72 (sc_s 0)))
 (let (($x73 (= ?x72 ?x63)))
 (let (($x6783 (exc_halt_t 3)))
 (let (($x4543 (or $x6783 (not (= ((_ extract 6 6) (bvadd (_ bv1 7) (concat (_ bv0 1) (sc_t 3)))) (_ bv0 1))))))
 (let (($x9762 (forall ((w (_ BitVec 256)) )(let ((?x15 (storage_t x_SLOAD_0 w_3 w_4 3 w)))
 (let ((?x3226 (storage_t x_SLOAD_0 w_3 w_4 4 w)))
 (= ?x3226 ?x15))))
 ))
 (let (($x7965 (forall ((n (_ BitVec 6)) )(let ((?x6505 (stack_t x_SLOAD_0 w_3 w_4 3 n)))
 (let ((?x7601 (stack_t x_SLOAD_0 w_3 w_4 4 n)))
 (or (bvsle (sc_t 3) n) (= ?x7601 ?x6505)))))
 ))
 (let (($x1875 (= (used_gas_t x_SLOAD_0 w_3 w_4 4) (+ 3 (used_gas_t x_SLOAD_0 w_3 w_4 3)))))
 (let (($x3589 (= $x6783 (or (exc_halt_t 2) (not (bvsle (_ bv0 6) (bvadd (_ bv63 6) (sc_t 2))))))))
 (let (($x7171 (forall ((w (_ BitVec 256)) )(let ((?x5022 (storage_t x_SLOAD_0 w_3 w_4 2 w)))
 (let ((?x15 (storage_t x_SLOAD_0 w_3 w_4 3 w)))
 (= ?x15 ?x5022))))
 ))
 (let (($x4045 (forall ((n (_ BitVec 6)) )(let ((?x10534 (stack_t x_SLOAD_0 w_3 w_4 2 n)))
 (let ((?x6505 (stack_t x_SLOAD_0 w_3 w_4 3 n)))
 (or (= ?x6505 ?x10534) (bvsle (bvadd (_ bv63 6) (sc_t 2)) n)))))
 ))
 (let ((?x10287 (used_gas_t x_SLOAD_0 w_3 w_4 3)))
 (let ((?x2714 (sc_t 2)))
 (let ((?x9660 (bvadd (_ bv63 6) ?x2714)))
 (let ((?x2147 (stack_t x_SLOAD_0 w_3 w_4 2 ?x9660)))
 (let (($x4634 (= (stack_t x_SLOAD_0 w_3 w_4 3 (bvadd (_ bv63 6) (sc_t 3))) (storage_t x_SLOAD_0 w_3 w_4 2 ?x2147))))
 (let (($x8377 (exc_halt_t 1)))
 (let (($x666 (or (not (= ((_ extract 6 6) (bvadd (_ bv1 7) (concat (_ bv0 1) (sc_t 1)))) (_ bv0 1))) $x8377 (not (bvsle (_ bv0 6) (bvadd (_ bv63 6) (sc_t 1)))))))
 (let (($x2163 (exc_halt_t 2)))
 (let (($x8302 (forall ((w (_ BitVec 256)) )(let ((?x3572 (storage_t x_SLOAD_0 w_3 w_4 1 w)))
 (let ((?x5022 (storage_t x_SLOAD_0 w_3 w_4 2 w)))
 (= ?x5022 ?x3572))))
 ))
 (let (($x718 (forall ((n (_ BitVec 6)) )(let ((?x6205 (stack_t x_SLOAD_0 w_3 w_4 1 n)))
 (let ((?x10534 (stack_t x_SLOAD_0 w_3 w_4 2 n)))
 (or (bvsle (bvadd (_ bv63 6) (sc_t 1)) n) (= ?x10534 ?x6205)))))
 ))
 (let ((?x5957 (used_gas_t x_SLOAD_0 w_3 w_4 2)))
 (let ((?x7154 (sc_t 1)))
 (let ((?x2146 (bvadd (_ bv63 6) ?x7154)))
 (let ((?x8837 (stack_t x_SLOAD_0 w_3 w_4 1 ?x2146)))
 (let (($x3863 (= $x8377 (or $x56 (not (= ((_ extract 6 6) (bvadd (_ bv1 7) (concat (_ bv0 1) ?x63))) (_ bv0 1)))))))
 (let (($x3814 (forall ((w (_ BitVec 256)) )(let ((?x10468 (storage_t x_SLOAD_0 w_3 w_4 0 w)))
 (let ((?x3572 (storage_t x_SLOAD_0 w_3 w_4 1 w)))
 (= ?x3572 ?x10468))))
 ))
 (let (($x3015 (forall ((n (_ BitVec 6)) )(let ((?x5347 (stack_t x_SLOAD_0 w_3 w_4 0 n)))
 (let ((?x6205 (stack_t x_SLOAD_0 w_3 w_4 1 n)))
 (let ((?x63 (sc_t 0)))
 (let (($x1948 (bvsle ?x63 n)))
 (or $x1948 (= ?x6205 ?x5347)))))))
 ))
 (let (($x7222 (= $x772 (or (not (bvsle (_ bv0 6) (bvadd (_ bv62 6) (sc_s 5)))) (exc_halt_s 5)))))
 (let (($x7876 (forall ((w (_ BitVec 256)) )(let ((?x8364 (storage_s x_SLOAD_0 w_3 w_4 5 w)))
 (let ((?x6228 (storage_s x_SLOAD_0 w_3 w_4 6 w)))
 (= ?x6228 ?x8364))))
 ))
 (let (($x6451 (forall ((n (_ BitVec 6)) )(let ((?x7556 (stack_s x_SLOAD_0 w_3 w_4 5 n)))
 (let ((?x6792 (stack_s x_SLOAD_0 w_3 w_4 6 n)))
 (or (bvsle (bvadd (_ bv62 6) (sc_s 5)) n) (= ?x6792 ?x7556)))))
 ))
 (let (($x9434 (= (used_gas_s x_SLOAD_0 w_3 w_4 6) (+ 3 (used_gas_s x_SLOAD_0 w_3 w_4 5)))))
 (let ((?x836 (stack_s x_SLOAD_0 w_3 w_4 5 (bvadd (_ bv63 6) (sc_s 5)))))
 (let (($x8419 (= (stack_s x_SLOAD_0 w_3 w_4 6 (bvadd (_ bv63 6) ?x926)) (stack_s x_SLOAD_0 w_3 w_4 5 (bvadd (_ bv62 6) (sc_s 5))))))
 (let (($x11317 (exc_halt_s 5)))
 (let (($x9641 (= $x11317 (or (exc_halt_s 4) (not (bvsle (_ bv0 6) (bvadd (_ bv63 6) (sc_s 4))))))))
 (let (($x10107 (forall ((w (_ BitVec 256)) )(let ((?x1216 (storage_s x_SLOAD_0 w_3 w_4 4 w)))
 (let ((?x8364 (storage_s x_SLOAD_0 w_3 w_4 5 w)))
 (= ?x8364 ?x1216))))
 ))
 (let (($x1044 (forall ((n (_ BitVec 6)) )(let ((?x4130 (stack_s x_SLOAD_0 w_3 w_4 4 n)))
 (let ((?x7556 (stack_s x_SLOAD_0 w_3 w_4 5 n)))
 (or (= ?x7556 ?x4130) (bvsle (bvadd (_ bv63 6) (sc_s 4)) n)))))
 ))
 (let ((?x11588 (used_gas_s x_SLOAD_0 w_3 w_4 5)))
 (let ((?x4305 (sc_s 4)))
 (let ((?x6098 (bvadd (_ bv63 6) ?x4305)))
 (let ((?x4556 (stack_s x_SLOAD_0 w_3 w_4 4 ?x6098)))
 (let (($x7172 (exc_halt_s 4)))
 (let (($x9358 (= $x7172 (or (exc_halt_s 3) (not (bvsle (_ bv0 6) (bvadd (_ bv62 6) (sc_s 3))))))))
 (let (($x8278 (forall ((w (_ BitVec 256)) )(let ((?x6270 (storage_s x_SLOAD_0 w_3 w_4 3 w)))
 (let ((?x1216 (storage_s x_SLOAD_0 w_3 w_4 4 w)))
 (= ?x1216 ?x6270))))
 ))
 (let (($x9953 (forall ((n (_ BitVec 6)) )(let ((?x4131 (stack_s x_SLOAD_0 w_3 w_4 3 n)))
 (let ((?x4130 (stack_s x_SLOAD_0 w_3 w_4 4 n)))
 (or (bvsle (bvadd (_ bv62 6) (sc_s 3)) n) (= ?x4130 ?x4131)))))
 ))
 (let ((?x9756 (used_gas_s x_SLOAD_0 w_3 w_4 4)))
 (let (($x6833 (= (stack_s x_SLOAD_0 w_3 w_4 4 (bvadd (_ bv62 6) ?x4305)) (stack_s x_SLOAD_0 w_3 w_4 3 (bvadd (_ bv63 6) (sc_s 3))))))
 (let (($x247 (exc_halt_s 2)))
 (let (($x5840 (or $x247 (not (= ((_ extract 6 6) (bvadd (_ bv1 7) (concat (_ bv0 1) (sc_s 2)))) (_ bv0 1))))))
 (let (($x292 (exc_halt_s 3)))
 (let (($x5830 (forall ((w (_ BitVec 256)) )(let ((?x9824 (storage_s x_SLOAD_0 w_3 w_4 2 w)))
 (let ((?x6270 (storage_s x_SLOAD_0 w_3 w_4 3 w)))
 (= ?x6270 ?x9824))))
 ))
 (let (($x9115 (forall ((n (_ BitVec 6)) )(let ((?x5296 (stack_s x_SLOAD_0 w_3 w_4 2 n)))
 (let ((?x4131 (stack_s x_SLOAD_0 w_3 w_4 3 n)))
 (or (bvsle (sc_s 2) n) (= ?x4131 ?x5296)))))
 ))
 (let ((?x1945 (used_gas_s x_SLOAD_0 w_3 w_4 3)))
 (let (($x189 (exc_halt_s 1)))
 (let (($x793 (or $x189 (not (= ((_ extract 6 6) (bvadd (_ bv1 7) (concat (_ bv0 1) (sc_s 1)))) (_ bv0 1))))))
 (let (($x9659 (forall ((w (_ BitVec 256)) )(let ((?x3280 (storage_s x_SLOAD_0 w_3 w_4 1 w)))
 (let ((?x9824 (storage_s x_SLOAD_0 w_3 w_4 2 w)))
 (= ?x9824 ?x3280))))
 ))
 (let (($x2953 (forall ((n (_ BitVec 6)) )(let ((?x7071 (stack_s x_SLOAD_0 w_3 w_4 1 n)))
 (let ((?x5296 (stack_s x_SLOAD_0 w_3 w_4 2 n)))
 (or (= ?x5296 ?x7071) (bvsle (sc_s 1) n)))))
 ))
 (let ((?x7558 (used_gas_s x_SLOAD_0 w_3 w_4 2)))
 (let (($x2601 (= $x189 (or $x57 (not (= ((_ extract 6 6) (bvadd (_ bv1 7) (concat (_ bv0 1) ?x72))) (_ bv0 1)))))))
 (let (($x6956 (forall ((w (_ BitVec 256)) )(let ((?x10620 (storage_s x_SLOAD_0 w_3 w_4 0 w)))
 (let ((?x3280 (storage_s x_SLOAD_0 w_3 w_4 1 w)))
 (= ?x3280 ?x10620))))
 ))
 (let (($x1518 (forall ((n (_ BitVec 6)) )(let ((?x609 (stack_s x_SLOAD_0 w_3 w_4 0 n)))
 (let ((?x7071 (stack_s x_SLOAD_0 w_3 w_4 1 n)))
 (or (bvsle (sc_s 0) n) (= ?x7071 ?x609)))))
 ))
 (let (($x9204 (forall ((w (_ BitVec 256)) )(let ((?x11842 (ite (= w (stack_s x_SLOAD_0 w_3 w_4 4 (bvadd (_ bv63 6) (sc_s 4)))) x_SLOAD_0 (_ bv0 256))))
 (let ((?x10620 (storage_s x_SLOAD_0 w_3 w_4 0 w)))
 (= ?x10620 ?x11842))))
 ))
 (let (($x11496 (= ?x6847 0)))
 (let (($x1074 (= ?x72 (_ bv0 6))))
 (and $x1074 (not $x57) $x11496 $x9204 (= (stack_s x_SLOAD_0 w_3 w_4 1 ?x72) w_3) (= (used_gas_s x_SLOAD_0 w_3 w_4 1) (+ 3 ?x6847)) (= (sc_s 1) (bvadd (_ bv1 6) ?x72)) $x1518 $x6956 $x2601 (= (stack_s x_SLOAD_0 w_3 w_4 2 (sc_s 1)) w_3) (= ?x7558 (+ 3 (used_gas_s x_SLOAD_0 w_3 w_4 1))) (= (sc_s 2) (bvadd (_ bv1 6) (sc_s 1))) $x2953 $x9659 (= $x247 $x793) (= (stack_s x_SLOAD_0 w_3 w_4 3 (sc_s 2)) w_4) (= ?x1945 (+ 3 ?x7558)) (= (sc_s 3) (bvadd (_ bv1 6) (sc_s 2))) $x9115 $x5830 (= $x292 $x5840) (= ?x4556 (stack_s x_SLOAD_0 w_3 w_4 3 (bvadd (_ bv62 6) (sc_s 3)))) $x6833 (= ?x9756 (+ 3 ?x1945)) (= ?x4305 (sc_s 3)) $x9953 $x8278 $x9358 (= ?x836 (storage_s x_SLOAD_0 w_3 w_4 4 ?x4556)) (= ?x11588 (+ 200 ?x9756)) (= (sc_s 5) ?x4305) $x1044 $x10107 $x9641 $x8419 (= (stack_s x_SLOAD_0 w_3 w_4 6 (bvadd (_ bv62 6) ?x926)) ?x836) $x9434 (= ?x926 (sc_s 5)) $x6451 $x7876 $x7222 (= (stack_t x_SLOAD_0 w_3 w_4 1 ?x63) w_3) (= (used_gas_t x_SLOAD_0 w_3 w_4 1) (+ 3 ?x9522)) (= ?x7154 (bvadd (_ bv1 6) ?x63)) $x3015 $x3814 $x3863 (= ?x2147 ?x8837) (= (stack_t x_SLOAD_0 w_3 w_4 2 ?x2146) ?x8837) (= ?x5957 (+ 3 (used_gas_t x_SLOAD_0 w_3 w_4 1))) (= ?x2714 (bvadd (_ bv1 6) ?x7154)) $x718 $x8302 (= $x2163 $x666) $x4634 (= ?x10287 (+ 200 ?x5957)) (= (sc_t 3) ?x2714) $x4045 $x7171 $x3589 (= (stack_t x_SLOAD_0 w_3 w_4 4 (sc_t 3)) w_4) $x1875 (= ?x4818 (bvadd (_ bv1 6) (sc_t 3))) $x7965 $x9762 (= $x7854 $x4543) $x73 $x2022 $x58 $x4346 $x5751 (not (and $x7899 $x2997 $x4404 $x5837)))))))))))))))))))))))))))))))))))))))))))))))))))))))))))))))))))))))))))))))))))))
 )
(check-sat)
(get-proof)
